NAME : in_house_7_5
TYPE : TSP
DIMENSION : 7
EDGE_WEIGHT_TYPE : EXPLICIT
EDGE_WEIGHT_FORMAT : UPPER_ROW
COMMENT : INVERSION_SHIFT=4
EDGE_WEIGHT_SECTION
49
44
43
4
24
9
32
23
13
6
15
31
24
7
45
49
18
33
27
15
44
